clingo version 5.5.2
Reading from ...nt/beegfs/home/jubruns/encoding/mif.lp ...
Solving...
Answer: 1
move(1,(10,13),(9,13),2) move(1,(9,13),(8,13),3) move(1,(8,13),(7,13),4) move(1,(7,13),(7,12),5) move(1,(7,12),(7,11),6) move(1,(7,11),(7,12),8) move(1,(7,12),(7,13),10) move(1,(7,13),(6,13),11) move(1,(6,13),(5,13),12) move(1,(5,13),(4,13),13) move(1,(4,13),(3,13),14) move(1,(3,13),(3,14),15) move(1,(3,14),(3,15),16) move(2,(9,14),(9,13),1) move(2,(9,13),(8,13),2) move(2,(8,13),(7,13),3) move(2,(7,13),(7,12),4) move(2,(7,12),(7,11),5) move(2,(7,11),(6,11),6) move(2,(6,11),(5,11),7) move(2,(5,11),(4,11),8) move(2,(4,11),(3,11),9) move(2,(3,11),(3,10),10) move(2,(3,10),(3,9),11) move(2,(3,9),(2,9),12) move(3,(4,11),(3,11),1) move(3,(3,11),(3,10),2) move(3,(3,10),(3,9),3) move(3,(3,9),(3,8),4) move(3,(3,8),(3,7),5) move(3,(3,7),(3,6),6) move(3,(3,6),(3,5),7) move(3,(3,5),(4,5),8) move(3,(4,5),(5,5),9) move(3,(5,5),(6,5),10) move(3,(6,5),(7,5),11) move(3,(7,5),(8,5),12) move(3,(8,5),(9,5),13) move(3,(9,5),(10,5),14) move(3,(10,5),(11,5),15) move(3,(11,5),(12,5),16) move(3,(12,5),(13,5),17) move(3,(13,5),(13,6),18) move(3,(13,6),(13,7),19) move(3,(13,7),(12,7),20) move(4,(8,9),(9,9),1) move(4,(9,9),(10,9),2) move(5,(3,6),(3,7),1) move(5,(3,7),(4,7),2) move(5,(4,7),(3,7),6) move(5,(3,7),(3,6),7) move(5,(3,6),(3,5),8) move(5,(3,5),(4,5),9) move(5,(4,5),(5,5),10) move(5,(5,5),(6,5),11) move(6,(5,15),(4,15),1) move(6,(4,15),(3,15),2) move(6,(3,15),(3,14),3) move(6,(3,14),(3,13),4) move(6,(3,13),(4,13),5) move(6,(4,13),(5,13),6) move(6,(5,13),(6,13),7) move(6,(6,13),(7,13),8) move(6,(7,13),(8,13),9) move(6,(8,13),(9,13),10) move(6,(9,13),(10,13),11) move(6,(10,13),(11,13),12) move(6,(11,13),(12,13),13) move(6,(12,13),(13,13),14) move(6,(13,13),(13,14),15) move(6,(13,14),(13,15),16) move(6,(13,15),(14,15),17) move(6,(14,15),(15,15),18) move(7,(6,1),(7,1),1) move(7,(7,1),(8,1),2) move(7,(8,1),(9,1),3) move(7,(9,1),(10,1),4) move(8,(6,13),(7,13),5) move(8,(7,13),(8,13),6) move(8,(8,13),(9,13),7) move(8,(9,13),(9,14),8) move(8,(9,14),(9,13),12) move(8,(9,13),(10,13),13) move(9,(6,15),(5,15),1) move(9,(5,15),(4,15),2) move(9,(4,15),(3,15),3) move(9,(3,15),(3,14),4) move(9,(3,14),(3,13),5) move(9,(3,13),(4,13),6) move(9,(4,13),(5,13),7) move(9,(5,13),(6,13),8) move(9,(6,13),(7,13),9) move(9,(7,13),(8,13),10) move(9,(8,13),(9,13),11) move(9,(9,13),(10,13),12) move(9,(10,13),(11,13),13) move(9,(11,13),(12,13),14) move(9,(12,13),(13,13),15) move(9,(13,13),(13,14),16) move(9,(13,14),(13,15),17) move(9,(13,15),(14,15),18)
SATISFIABLE

Models       : 1+
Calls        : 1
Time         : 0.544s (Solving: 0.01s 1st Model: 0.01s Unsat: 0.00s)
CPU Time     : 0.506s

Choices      : 189      (Domain: 87)
Conflicts    : 11       (Analyzed: 11)
Restarts     : 0       
Model-Level  : 147.0   
Problems     : 1        (Average Length: 0.00 Splits: 0)
Lemmas       : 11       (Deleted: 0)
  Binary     : 3        (Ratio:  27.27%)
  Ternary    : 2        (Ratio:  18.18%)
  Conflict   : 11       (Average Length:   16.1 Ratio: 100.00%) 
  Loop       : 0        (Average Length:    0.0 Ratio:   0.00%) 
  Other      : 0        (Average Length:    0.0 Ratio:   0.00%) 
Backjumps    : 11       (Average:  3.82 Max:  21 Sum:     42)
  Executed   : 11       (Average:  3.82 Max:  21 Sum:     42 Ratio: 100.00%)
  Bounded    : 0        (Average:  0.00 Max:   0 Sum:      0 Ratio:   0.00%)

Rules        : 164035   (Original: 124994)
  Choice     : 180     
  Heuristic  : 5788     (Original: 7039)
Atoms        : 74118    (Original: 60713 Auxiliary: 13405)
Bodies       : 96068    (Original: 69826)
  Count      : 179      (Original: 1759)
Equivalences : 157866   (Atom=Atom: 282 Body=Body: 340 Other: 157244)
Tight        : Yes
Variables    : 86555    (Eliminated:    0 Frozen: 40068)
Constraints  : 185219   (Binary:  84.6% Ternary:  10.6% Other:   4.8%)

